     Program CP v.6.6 starts on 16Feb2021 at 11: 0:23

     R & G space division:  proc/nbgrp/npool/nimage =     160
     Fft bands division:     nmany     =       1
     Waiting for input...
     Reading input from standard input

   Job Title: MD Simulation

   Atomic Pseudopotentials Parameters

   Reading pseudopotential for specie #  1 from file :
   ./O.pz-n-rrkjus_psl.0.1.UPF
     Message from routine emend_upf/check:
     BEWARE !!! Possible out of bounds while fixing pseudo
     Message from routine emend_upf/check:
     BEWARE !!! Possible out of bounds while fixing pseudo
     Message from routine read_upf:
     Pseudo file O.pz-n-rrkjus_psl.0.1.UPF has been fixed on the fly.
     To avoid this message in the future, permanently fix
     your pseudo files following these instructions:
   file type is UPF v.2

   Reading pseudopotential for specie #  2 from file :
   ./Ag.pz-d-rrkjus.UPF
   file type is UPF v.1

   Reading pseudopotential for specie #  3 from file :
   ./Mg.pz-bhs.UPF
   file type is UPF v.1
     file Ag.pz-d-rrkjus.UPF: wavefunction(s)  4D 5S renormalized

   Main Simulation Parameters (from input)
   Restart Mode       =       0   reset_counters
   Number of MD Steps =    1000
   Print out every           10 MD Steps
   Reads from unit    =      57
   Writes to unit     =      58
   MD Simulation time step            =       8.00
   Electronic fictitious mass (emass) =     300.00
   emass cut-off                      =       2.50

   Simulation Cell Parameters (from input)
   external pressure       =            0.00 [KBar]
   wmass (calculated)      =       949740.81 [AU]
   initial cell from CELL_PARAMETERS card
      12.63360000    0.00000000    0.00000000
       0.00000000   12.63360000    0.00000000
       0.00000000    0.00000000   16.84480000
   ibrav =    0
   alat  =    23.87404397
   a1    =    23.87404397    0.00000000    0.00000000
   a2    =     0.00000000   23.87404397    0.00000000
   a3    =     0.00000000    0.00000000   31.83205862

   b1    =     0.04188649    0.00000000    0.00000000
   b2    =     0.00000000    0.04188649    0.00000000
   b3    =     0.00000000    0.00000000    0.03141487
   omega =   18143.31767057

   Energy Cut-offs
   Ecutwfc =   50.0 Ry,      Ecutrho =  400.0 Ry,      Ecuts =  200.0 Ry
   Gcutwfc =   26.9     ,    Gcutrho =   76.0          Gcuts =   53.7
   NOTA BENE: refg, mmx =   0.050000  9600
   Eigenvalues calculated without the kinetic term contribution
   Orthog. with lagrange multipliers : eps =   0.10E-08,  max = 100
   verlet algorithm for electron dynamics
   with friction frice =  0.0500 , grease =  1.0000
   Electron dynamics : the temperature is not controlled

   Electronic states
   Number of Electrons=  1236, of States =   618
   Occupation numbers :
   2.00 2.00 2.00 2.00 2.00 2.00 2.00 2.00 2.00 2.00
   2.00 2.00 2.00 2.00 2.00 2.00 2.00 2.00 2.00 2.00
   2.00 2.00 2.00 2.00 2.00 2.00 2.00 2.00 2.00 2.00
   2.00 2.00 2.00 2.00 2.00 2.00 2.00 2.00 2.00 2.00
   2.00 2.00 2.00 2.00 2.00 2.00 2.00 2.00 2.00 2.00
   2.00 2.00 2.00 2.00 2.00 2.00 2.00 2.00 2.00 2.00
   2.00 2.00 2.00 2.00 2.00 2.00 2.00 2.00 2.00 2.00
   2.00 2.00 2.00 2.00 2.00 2.00 2.00 2.00 2.00 2.00
   2.00 2.00 2.00 2.00 2.00 2.00 2.00 2.00 2.00 2.00
   2.00 2.00 2.00 2.00 2.00 2.00 2.00 2.00 2.00 2.00
   2.00 2.00 2.00 2.00 2.00 2.00 2.00 2.00 2.00 2.00
   2.00 2.00 2.00 2.00 2.00 2.00 2.00 2.00 2.00 2.00
   2.00 2.00 2.00 2.00 2.00 2.00 2.00 2.00 2.00 2.00
   2.00 2.00 2.00 2.00 2.00 2.00 2.00 2.00 2.00 2.00
   2.00 2.00 2.00 2.00 2.00 2.00 2.00 2.00 2.00 2.00
   2.00 2.00 2.00 2.00 2.00 2.00 2.00 2.00 2.00 2.00
   2.00 2.00 2.00 2.00 2.00 2.00 2.00 2.00 2.00 2.00
   2.00 2.00 2.00 2.00 2.00 2.00 2.00 2.00 2.00 2.00
   2.00 2.00 2.00 2.00 2.00 2.00 2.00 2.00 2.00 2.00
   2.00 2.00 2.00 2.00 2.00 2.00 2.00 2.00 2.00 2.00
   2.00 2.00 2.00 2.00 2.00 2.00 2.00 2.00 2.00 2.00
   2.00 2.00 2.00 2.00 2.00 2.00 2.00 2.00 2.00 2.00
   2.00 2.00 2.00 2.00 2.00 2.00 2.00 2.00 2.00 2.00
   2.00 2.00 2.00 2.00 2.00 2.00 2.00 2.00 2.00 2.00
   2.00 2.00 2.00 2.00 2.00 2.00 2.00 2.00 2.00 2.00
   2.00 2.00 2.00 2.00 2.00 2.00 2.00 2.00 2.00 2.00
   2.00 2.00 2.00 2.00 2.00 2.00 2.00 2.00 2.00 2.00
   2.00 2.00 2.00 2.00 2.00 2.00 2.00 2.00 2.00 2.00
   2.00 2.00 2.00 2.00 2.00 2.00 2.00 2.00 2.00 2.00
   2.00 2.00 2.00 2.00 2.00 2.00 2.00 2.00 2.00 2.00
   2.00 2.00 2.00 2.00 2.00 2.00 2.00 2.00 2.00 2.00
   2.00 2.00 2.00 2.00 2.00 2.00 2.00 2.00 2.00 2.00
   2.00 2.00 2.00 2.00 2.00 2.00 2.00 2.00 2.00 2.00
   2.00 2.00 2.00 2.00 2.00 2.00 2.00 2.00 2.00 2.00
   2.00 2.00 2.00 2.00 2.00 2.00 2.00 2.00 2.00 2.00
   2.00 2.00 2.00 2.00 2.00 2.00 2.00 2.00 2.00 2.00
   2.00 2.00 2.00 2.00 2.00 2.00 2.00 2.00 2.00 2.00
   2.00 2.00 2.00 2.00 2.00 2.00 2.00 2.00 2.00 2.00
   2.00 2.00 2.00 2.00 2.00 2.00 2.00 2.00 2.00 2.00
   2.00 2.00 2.00 2.00 2.00 2.00 2.00 2.00 2.00 2.00
   2.00 2.00 2.00 2.00 2.00 2.00 2.00 2.00 2.00 2.00
   2.00 2.00 2.00 2.00 2.00 2.00 2.00 2.00 2.00 2.00
   2.00 2.00 2.00 2.00 2.00 2.00 2.00 2.00 2.00 2.00
   2.00 2.00 2.00 2.00 2.00 2.00 2.00 2.00 2.00 2.00
   2.00 2.00 2.00 2.00 2.00 2.00 2.00 2.00 2.00 2.00
   2.00 2.00 2.00 2.00 2.00 2.00 2.00 2.00 2.00 2.00
   2.00 2.00 2.00 2.00 2.00 2.00 2.00 2.00 2.00 2.00
   2.00 2.00 2.00 2.00 2.00 2.00 2.00 2.00 2.00 2.00
   2.00 2.00 2.00 2.00 2.00 2.00 2.00 2.00 2.00 2.00
   2.00 2.00 2.00 2.00 2.00 2.00 2.00 2.00 2.00 2.00
   2.00 2.00 2.00 2.00 2.00 2.00 2.00 2.00 2.00 2.00
   2.00 2.00 2.00 2.00 2.00 2.00 2.00 2.00 2.00 2.00
   2.00 2.00 2.00 2.00 2.00 2.00 2.00 2.00 2.00 2.00
   2.00 2.00 2.00 2.00 2.00 2.00 2.00 2.00 2.00 2.00
   2.00 2.00 2.00 2.00 2.00 2.00 2.00 2.00 2.00 2.00
   2.00 2.00 2.00 2.00 2.00 2.00 2.00 2.00 2.00 2.00
   2.00 2.00 2.00 2.00 2.00 2.00 2.00 2.00 2.00 2.00
   2.00 2.00 2.00 2.00 2.00 2.00 2.00 2.00 2.00 2.00
   2.00 2.00 2.00 2.00 2.00 2.00 2.00 2.00 2.00 2.00
   2.00 2.00 2.00 2.00 2.00 2.00 2.00 2.00 2.00 2.00
   2.00 2.00 2.00 2.00 2.00 2.00 2.00 2.00 2.00 2.00
   2.00 2.00 2.00 2.00 2.00 2.00 2.00 2.00

   Exchange and correlations functionals
     Exchange-correlation=  SLA  PZ   NOGX NOGC
                           (   1   1   0   0   0   0   0)

   Ions Simulation Parameters
   Ions are not allowed to move
   Ionic position (from input)
   sorted by specie, and converted to real a.u. coordinates
   Species   1 atoms =  138 mass =     29166.22 (a.u.),        16.00 (amu) rcmax =   0.50 (a.u.)
       17.686732    17.800724    29.675879
       17.686732    21.779731    25.696872
       21.665740    17.800724    25.696872
       21.665739    21.779731    29.675879
       17.686732    17.800724    21.717864
       17.686732    21.779731    17.738857
       21.665740    17.800724    17.738857
       21.665740    21.779731    21.717864
       17.686732    17.800724    13.759849
       17.686732    21.779732     9.780841
       21.665740    17.800724     9.780841
       21.665740    21.779731    13.759849
       17.686733    17.800725     5.801834
       17.686733    21.779732     1.822826
       21.665741    17.800725     1.822826
       21.665740    21.779732     5.801834
       17.686732     9.842708    29.675879
       17.686732    13.821716    25.696872
       21.665740     9.842709    25.696872
       21.665740    13.821716    29.675879
       17.686732     9.842709    21.717864
       17.686732    13.821716    17.738857
       21.665740     9.842709    17.738857
       21.665740    13.821716    21.717864
       17.686733     9.842709    13.759849
       17.686733    13.821717     9.780841
       21.665741     9.842709     9.780841
       21.665740    13.821716    13.759849
       17.686733     9.842709     5.801834
       17.686733    13.821717     1.822826
       21.665741     9.842710     1.822826
       21.665741    13.821717     5.801834
       17.686732     1.884693    29.675879
       17.686732     5.863701    25.696872
       21.665740     1.884693    25.696872
       21.665740     5.863701    29.675879
       17.686733     1.884694    21.717864
       17.686733     5.863701    17.738857
       21.665741     1.884694    17.738857
       21.665740     5.863701    21.717864
       17.686733     1.884694    13.759849
       17.686733     5.863701     9.780841
       21.665741     1.884694     9.780841
       21.665741     5.863701    13.759849
       17.686733     1.884694     5.801834
       17.686733     5.863702     1.822826
       21.665741     1.884695     1.822826
       21.665741     5.863702     5.801834
        9.728716    17.800724    29.675879
        9.728716    21.779731    25.696872
       13.707725    17.800724    25.696872
       13.707724    21.779731    29.675879
        9.728717    17.800724    21.717864
        9.728717    21.779731    17.738857
       13.707725    17.800724    17.738857
       13.707725    21.779731    21.717864
        9.728717    17.800724    13.759849
        9.728717    21.779732     9.780841
       13.707725    17.800724     9.780841
       13.707725    21.779731    13.759849
[...]
        1.770702     5.863701    25.696872
        5.749710     1.884693    25.696872
        5.749710     5.863701    29.675879
        1.770702     1.884694    21.717864
        1.770702     5.863701    17.738857
        5.749711     1.884694    17.738857
        5.749710     5.863701    21.717864
        1.770703     1.884694    13.759849
        1.770703     5.863701     9.780841
        5.749711     1.884694     9.780841
        5.749711     5.863701    13.759849
        1.770703     1.884694     5.801834
        1.770703     5.863702     1.822826
        5.749711     1.884695     1.822826
        5.749711     5.863702     5.801834
   Species   2 atoms =   12 mass =    196689.67 (a.u.),       107.90 (amu) rcmax =   0.50 (a.u.)
        1.770702    13.821716    17.738857
        5.749710     9.842709    17.738857
        5.749710    13.821716    17.738857
        1.770702     9.842709    17.738857
        1.770702     9.842709    13.759849
        1.770702    13.821717     9.780841
        5.749711     9.842709     9.780841
        5.749710    13.821717     9.780841
        5.749710     9.842709    13.759849
        1.770702    13.821717    13.759849
        5.749710    13.821716    13.759849
        1.770703     9.842709     9.780841
   Species   3 atoms =  138 mass =     44296.19 (a.u.),        24.30 (amu) rcmax =   0.50 (a.u.)
       21.665739    21.779731    25.696872
       21.665739    17.800724    29.675879
       17.686731    21.779731    29.675879
       17.686732    17.800724    25.696872
       21.665740    21.779732    17.738857
       21.665740    17.800724    21.717864
       17.686732    21.779731    21.717864
       17.686732    17.800724    17.738857
       21.665740    21.779732     9.780841
       21.665740    17.800724    13.759849
       17.686732    21.779732    13.759849
       17.686732    17.800724     9.780841
       21.665740    21.779732     1.822826
       21.665740    17.800725     5.801834
       17.686732    21.779732     5.801834
       17.686733    17.800725     1.822826
       21.665740    13.821716    25.696872
       21.665740     9.842708    29.675879
[...]
   Mg      0.18142156165759E+02     0.14234180461269E+02     0.57802434177976E+01
   Mg      0.18146831554355E+02     0.10094765006949E+02     0.17879614191484E+01
   Mg      0.22240041387668E+02     0.59961248809432E+01     0.26243040685434E+02
   Mg      0.22239020587021E+02     0.19223516766645E+01     0.30256195224393E+02
   Mg      0.18166292273974E+02     0.59951151697133E+01     0.30256194998363E+02
   Mg      0.18170365430633E+02     0.19263933875667E+01     0.26236607450079E+02
   Mg      0.22075639917064E+02     0.58318326353684E+01     0.18100760860303E+02
   Mg      0.22237535368054E+02     0.19168278987150E+01     0.22218335260337E+02
   Mg      0.18160657793004E+02     0.59935960716176E+01     0.22218345509307E+02
   Mg      0.18136206241826E+02     0.18922780985287E+01     0.18156114648329E+02
   Mg      0.22075653317536E+02     0.58318418417836E+01     0.99571860317090E+01
   Mg      0.22165102238233E+02     0.18887992107838E+01     0.14028961530948E+02
   Mg      0.18132709876839E+02     0.59211575421058E+01     0.14028962153794E+02
   Mg      0.18136207320000E+02     0.18922807445127E+01     0.99015773319425E+01
   Mg      0.22240056504899E+02     0.59961415685539E+01     0.18147254387543E+01
   Mg      0.22237548574264E+02     0.19168369579261E+01     0.58393962452297E+01
   Mg      0.18160662256517E+02     0.59936136395730E+01     0.58393878925164E+01
   Mg      0.18170371222018E+02     0.19264040775062E+01     0.18210923073434E+01
[...]
   O       0.18032379067697E+01     0.59395710214816E+01     0.26305932144302E+02
   O       0.59307749496518E+01     0.19160934823972E+01     0.26267528719566E+02
   O       0.59276241675094E+01     0.59546094137688E+01     0.30256278575017E+02
   O       0.17980707418995E+01     0.18840817885185E+01     0.22283056108904E+02
   O       0.18538420311721E+01     0.53916377317704E+01     0.18107648433523E+02
   O       0.60175308069180E+01     0.18002582648294E+01     0.18231266352394E+02
   O       0.59198772022164E+01     0.59499322185786E+01     0.22277902251283E+02
   O       0.16881622625583E+01     0.17801016615393E+01     0.14029155993095E+02
   O       0.18538443269316E+01     0.53916338846256E+01     0.99506277401853E+01
   O       0.60175526309251E+01     0.18002576534159E+01     0.98269883113247E+01
   O       0.58316614724570E+01     0.52573707195764E+01     0.14029235238854E+02
   O       0.17981037036732E+01     0.18840782558701E+01     0.57750353526158E+01
   O       0.18032791446342E+01     0.59395830538126E+01     0.17518745610712E+01
   O       0.59307360506708E+01     0.19160893157877E+01     0.17902384596911E+01
   O       0.59198564568835E+01     0.59498999964024E+01     0.57801763369089E+01

   ATOMIC_VELOCITIES
   Ag     -0.37248440073059E-07     0.12805163439525E-07    -0.40213675423349E-06
   Ag      0.17968039515657E-08    -0.39048556047015E-07    -0.39944184511608E-06
   Ag     -0.91060219444108E-07    -0.96325005589581E-07    -0.33565105008695E-07
   Ag      0.54728856791549E-07     0.68109923100494E-07    -0.48535008611864E-07
   Ag      0.13208567417950E-06     0.14263383046144E-06     0.62660740944235E-08
   Ag     -0.37864925256096E-07     0.12839278044808E-07     0.41310986465717E-06
   Ag      0.21839233585169E-08    -0.39865127547655E-07     0.41309673798559E-06
   Ag     -0.91853847445459E-07    -0.96574704178354E-07     0.42175867647607E-07
   Ag      0.75411990312995E-06    -0.75268732609845E-06     0.78269429801681E-08
   Ag     -0.74843962653509E-06     0.77021119085724E-06     0.55544501597907E-08
   Ag     -0.12777800175638E-06    -0.12631998465974E-06     0.44642345321317E-08
   Ag      0.54892060833404E-07     0.68277551598719E-07     0.61356892702459E-07
   Mg      0.61594200141549E-07    -0.10162127270006E-06     0.23456735154793E-06
   Mg      0.11637116876278E-06    -0.12894206878715E-06     0.24955603019145E-08
   Mg      0.56299221035501E-07    -0.63422765457938E-07    -0.57745801315185E-09
   Mg      0.94989416359338E-07    -0.67757939074738E-07     0.23549996012351E-06
   Mg     -0.60513338812509E-07    -0.71681506068690E-07     0.37436962380473E-06
   Mg      0.76079789449221E-07    -0.75371053399632E-07     0.13621999265001E-06
   Mg      0.14566336048990E-07    -0.98557946594630E-08     0.49765978289976E-06
   Mg      0.70638681782791E-07     0.75940808792538E-07     0.37767785238283E-06
   Mg     -0.62455946051675E-07    -0.71062130701352E-07    -0.36128616747889E-06
   Mg     -0.39013810112715E-06     0.38134123478940E-06     0.63346952524227E-08
   Mg     -0.67374106693125E-07     0.83875503888316E-07     0.95922997899026E-08
   Mg      0.69626711152871E-07     0.77141820790124E-07    -0.36485763694834E-06
   Mg      0.60296221189822E-07    -0.10106237358780E-06    -0.23075831474718E-06
   Mg      0.74211334346446E-07    -0.73774869661341E-07    -0.12737634682950E-06
   Mg      0.13019334163899E-07    -0.88527675671969E-08    -0.49076693568922E-06
   Mg      0.94433745390106E-07    -0.66537676247102E-07    -0.23164784775916E-06
   Mg      0.90353803307039E-07    -0.83486689972780E-07     0.45105470472780E-07
   Mg      0.48133461277381E-07    -0.67692595756441E-08     0.47930261413651E-08
   Mg      0.66390340565414E-07    -0.64161707279270E-07     0.35651387456008E-08
   Mg     -0.25436557752043E-07    -0.79744715969799E-08     0.16513193104993E-06
   Mg     -0.30665841295281E-07    -0.50769631838659E-06     0.10596851869841E-06
   Mg     -0.76485772455726E-07    -0.20076352513787E-06     0.18320677682060E-06
   Mg      0.31369422033224E-07    -0.31567878372369E-07     0.23343669624628E-06
   Mg     -0.14290417389326E-06    -0.28962688444119E-06     0.18058136363340E-06
   Mg     -0.31432001680462E-07    -0.50767549716148E-06    -0.95010940888954E-07
   Mg     -0.18086682126734E-06    -0.89885494986077E-06     0.50497463490824E-08
   Mg      0.93047686613304E-07     0.15426226822592E-06     0.72175652409476E-08
   Mg     -0.14441263064959E-06    -0.29127163047967E-06    -0.16750591196147E-06
   Mg      0.89493831685830E-07    -0.83085775126953E-07    -0.35870862360462E-07
   Mg     -0.78445491795740E-07    -0.20238327324210E-06    -0.17278991073511E-06
   Mg      0.30728093279611E-07    -0.30987388129048E-07    -0.22302815725211E-06
   Mg     -0.26353777241476E-07    -0.89632265508639E-08    -0.15681417343328E-06
   Mg     -0.32612096561268E-07    -0.35813846443408E-07     0.21719192965868E-06
   Mg      0.43031757232071E-07    -0.44827040671710E-07     0.92621503086652E-09
   Mg     -0.42423406406380E-07     0.36880840651258E-07     0.90871775417204E-09
   Mg     -0.16933393017288E-07    -0.20651267843539E-07     0.33784245941807E-06
   Mg     -0.17433506301130E-06    -0.17161705856642E-06     0.45996900709786E-06
   Mg     -0.92399020141785E-07    -0.10277613323597E-06     0.42173230942913E-06
   Mg     -0.10397323231362E-06    -0.94128322419236E-07     0.42338519625450E-06
   Mg     -0.93802782430246E-07    -0.92504898642971E-07     0.45921395596589E-06
   Mg     -0.17583824413974E-06    -0.17238324541025E-06    -0.44955132002735E-06
   Mg     -0.31062070475416E-06    -0.18602048409618E-06     0.83453482971411E-08
   Mg     -0.18417187073018E-06    -0.30351378317600E-06     0.84971211739563E-08
   Mg     -0.94883666125456E-07    -0.93101031974864E-07    -0.44398573514860E-06
   Mg     -0.34155710759297E-07    -0.37214168358953E-07    -0.21184492127239E-06
   Mg     -0.94613011580413E-07    -0.10348877424448E-06    -0.41465147942860E-06
   Mg     -0.10524550934178E-06    -0.96286554464353E-07    -0.41621616790151E-06
   Mg     -0.17585521627096E-07    -0.21254373619417E-07    -0.33694433490561E-06
[...]
   O      -0.36244218988252E-07     0.75762661431506E-08     0.98629334668279E-07
   O      -0.46991511242525E-07     0.55763706964120E-07     0.15650358198651E-06
   O      -0.80105649704952E-07     0.11611973580771E-06     0.40817311496191E-08
   O      -0.77904925409554E-07    -0.93691789158512E-07     0.24883375866748E-06
   O      -0.68933138387993E-06    -0.15922345715604E-06     0.37794575419449E-06
   O       0.63120564935317E-07     0.71553900114468E-07     0.18681569684911E-06
   O      -0.99362374115295E-07    -0.22094763378820E-07     0.67855467990303E-07
   O      -0.65732050619581E-06    -0.17401895405189E-06     0.63519245634041E-08
   O      -0.69053498755793E-06    -0.16027464147732E-06    -0.37455888091931E-06
   O       0.63760627687928E-07     0.71447734382758E-07    -0.17294034251492E-06
   O      -0.16489399979585E-05    -0.40268857844007E-08     0.55568238433392E-08
   O      -0.79831503154100E-07    -0.95609904308794E-07    -0.23851712546184E-06
   O      -0.36446917808002E-07     0.68681458166107E-08    -0.88589379457337E-07
   O      -0.47146414184113E-07     0.55559512539919E-07    -0.14947371204029E-06
   O      -0.98143091456160E-07    -0.23816062910885E-07    -0.57293906469616E-07

   Forces acting on atoms (au):
   Ag     -0.17044467600389E-03     0.16694650003814E-03     0.51502144278519E-03
   Ag      0.16561007234479E-03    -0.17081836393722E-03     0.51532992288858E-03
   Ag     -0.26392627609531E-04    -0.26857230712400E-04     0.75620004945096E-03
   Ag      0.21088322107247E-04     0.22495907968754E-04     0.75451329486709E-03
   Ag      0.16577863568923E-04     0.17755821915435E-04     0.34715206602638E-03
   Ag      0.17032778810564E-03    -0.17393223778389E-03     0.48792131242069E-03
   Ag     -0.17496733983647E-03     0.17015351076464E-03     0.48793605372330E-03
   Ag     -0.43511162028189E-04    -0.44129852397623E-04     0.80252792690952E-03
   Ag      0.90788763136133E-04    -0.91259764138745E-04     0.35616214832475E-03
   Ag     -0.90667762089414E-04     0.92586187683294E-04     0.35592821318100E-03
   Ag     -0.16687364546847E-04    -0.16581779621199E-04     0.34692380963035E-03
   Ag      0.38841653874087E-04     0.40521614932692E-04     0.80469489483358E-03
   Mg     -0.10721258940140E-03     0.83557146319328E-04     0.23711938072173E-02
   Mg      0.51915587950634E-05    -0.67561091610566E-05     0.26014062832566E-02
   Mg      0.27583633819484E-05    -0.40046660137916E-05     0.23640812339129E-02
   Mg     -0.84813334732316E-04     0.10600504465314E-03     0.23712546674255E-02
   Mg     -0.85582839377588E-04     0.16268687114349E-03     0.17035034281037E-02
   Mg     -0.48815283231084E-03     0.48734400317525E-03     0.21946631551963E-02
   Mg     -0.67162550099444E-04     0.66552425247263E-04     0.20742853140300E-02
   Mg     -0.16359541317167E-03     0.85662393172752E-04     0.17037220396729E-02
   Mg      0.69833987512471E-04    -0.15791970616802E-03     0.16456876753000E-02
   Mg     -0.34308033219579E-04     0.32947981948785E-04     0.12076298386527E-02
   Mg     -0.67331136151677E-05     0.68899187874204E-05     0.15891057703420E-02
   Mg      0.15702433244769E-03    -0.69765851482083E-04     0.16454914974610E-02
   Mg      0.10995785958058E-03    -0.92663045384397E-04     0.23295083951000E-02
   Mg      0.47172869266251E-03    -0.47249677409078E-03     0.21516640765374E-02
   Mg      0.63442751709780E-04    -0.63947515853932E-04     0.19968631683741E-02
   Mg      0.91474945686538E-04    -0.11111855729427E-03     0.23294595642385E-02
   Mg     -0.20728396349636E-03     0.88970037872995E-04     0.27929980407514E-02
   Mg      0.41188823728350E-06    -0.16562748272936E-05     0.27241490640623E-02
   Mg      0.22974815776398E-05    -0.42976585593925E-05     0.25488386282301E-02
   Mg     -0.99353198458125E-04    -0.70303798801059E-04     0.24020292631296E-02
   Mg     -0.91118149693522E-03     0.16027901683688E-03     0.11283768045203E-02
   Mg     -0.87993126388277E-03    -0.30395662720177E-03     0.24026369296918E-02
   Mg     -0.38245094245024E-03     0.54493241011088E-04     0.20203392454457E-02
   Mg     -0.28652182204410E-03    -0.69666282775623E-04     0.16425245462569E-02
   Mg      0.84870057254474E-03    -0.21820354498041E-03     0.11254133416895E-02
   Mg     -0.27882415632500E-04    -0.58904272268142E-04     0.80637161396910E-03
   Mg     -0.18668787524758E-05     0.10424080505237E-04     0.14283423685435E-02
   Mg      0.25603885339709E-03     0.27808744218950E-04     0.16071364991314E-02
   Mg      0.20863379304659E-03    -0.95143353252355E-04     0.27456545792880E-02
   Mg      0.81367824129401E-03     0.25479826121306E-03     0.23576009184994E-02
   Mg      0.35523478416217E-03    -0.56250886371679E-04     0.19738804200804E-02
   Mg      0.89709627001949E-04     0.65626621506073E-04     0.23678890424502E-02
   Mg     -0.18464870539327E-03    -0.18493790079484E-03     0.25289393520303E-02
   Mg      0.19489898725739E-05    -0.38964377555046E-05     0.24460014171629E-02
   Mg     -0.36732905093581E-05     0.15004801326450E-05     0.24459958143227E-02
   Mg     -0.41186455084518E-04    -0.41483478140238E-04     0.23015298096734E-02
   Mg     -0.41725208093780E-03    -0.41713501095499E-03     0.15251674419975E-02
   Mg     -0.12879439101814E-03    -0.15639493773463E-03     0.20744523101683E-02
   Mg     -0.15636687546279E-03    -0.12896175931085E-03     0.20745442215396E-02
   Mg     -0.42506418465470E-04    -0.42506758767470E-04     0.17657474900226E-02
   Mg      0.37517649258284E-03     0.37525709578163E-03     0.14523571813642E-02
   Mg     -0.22287059826695E-04    -0.15657788559074E-04     0.15184998984502E-02
   Mg     -0.15471427062756E-04    -0.21944227464511E-04     0.15185330114495E-02
   Mg      0.27798104560799E-04     0.27820484262102E-04     0.16970482007737E-02
   Mg      0.17012549299101E-03     0.16988216560342E-03     0.24862170230061E-02
   Mg      0.10922305084779E-03     0.13876948468609E-03     0.20047732228595E-02
   Mg      0.13873058302751E-03     0.10903210029785E-03     0.20046717023894E-02
   Mg      0.37486402818478E-04     0.37189052178999E-04     0.22509480552850E-02
[...]
   O       0.13126879075015E-03     0.37404112374739E-03    -0.27473084580273E-02
   O      -0.56658055985682E-04     0.20897903881142E-03    -0.25309129065889E-02
   O      -0.10733508455528E-04     0.16224647262132E-04    -0.27216509950353E-02
   O       0.11854522310026E-03     0.21494707116918E-03    -0.20721913862750E-02
   O       0.11831367879413E-03     0.91955320599899E-03    -0.12432979602841E-02
   O      -0.84001195243132E-04     0.20896284811052E-03    -0.15441933803383E-02
   O      -0.22549915270045E-03     0.12456097370450E-02    -0.28049425262629E-02
   O      -0.74186414538111E-04    -0.15840347127338E-04    -0.12768341703630E-02
   O      -0.26809711764791E-03    -0.94369321987422E-03    -0.13166488354998E-02
   O       0.92222500771420E-04    -0.17900074684268E-03    -0.15660799305052E-02
   O      -0.19375354974129E-03     0.19708378971623E-04    -0.10591045641438E-02
   O      -0.13256010957049E-03    -0.23077583386831E-03    -0.20994708084674E-02
   O      -0.13643986931209E-03    -0.35108366864589E-03    -0.27347278689698E-02
   O       0.43535004498937E-04    -0.19006096095114E-03    -0.25422099169284E-02
   O       0.19240256127952E-03    -0.11861845648116E-02    -0.27402221575016E-02

   Partial temperatures (for each ionic specie)
   Species  Temp (K)   Mean Square Displacement (a.u.)
        1   0.00E+00     0.0000E+00
        2   0.00E+00     0.0000E+00
        3   0.00E+00     0.0000E+00
    120    0.000000009325487    0.0    0.00   -2898.556237743461   -2898.551058077113   -2898.551058077113   -2898.551058067788   0.0000   0.0000   0.0000   0.0000
Elct. dipole 1   -3.856916  Ionic dipole 1    9.036582

   writing restart file (with schema): ./Ag16_334_58.save/

   Averaged Physical Quantities
                      accumulated      this run
   ekinc         :        0.00011       0.00011 (AU)
   ekin          :     1316.41045    1316.41045 (AU)
   epot          :    -4408.24201   -4408.24201 (AU)
   total energy  :    -2898.55611   -2898.55611 (AU)
   temperature   :        0.00000       0.00000 (K )
   enthalpy      :    -2898.55099   -2898.55099 (AU)
   econs         :    -2898.55099   -2898.55099 (AU)
   pressure      :        0.00387       0.00387 (Gpa)
   volume        :    19548.26616   19548.26616 (AU)

     Small boxes:

     Low-level routines:

   This run was terminated on:  13:22:53  16Feb2021

   JOB DONE.
[1613499773.167134] [nia0222:15790:0]          mpool.c:42   UCX  WARN  object 0x69ad880 was not returned to mpool ucp_requests
[1613499773.222370] [nia0222:15822:0]          mpool.c:42   UCX  WARN  object 0x77b6cc0 was not returned to mpool ucp_requests
[1613499773.229813] [nia0222:15838:0]          mpool.c:42   UCX  WARN  object 0x7084540 was not returned to mpool ucp_requests
[1613499773.237710] [nia0222:15813:0]          mpool.c:42   UCX  WARN  object 0x5b1dfc0 was not returned to mpool ucp_requests